
n_res = 6;
rcap = [50, 49, 50, 49, 760, 891];
rtype = [1, 1, 1, 1, 2, 2];
n_tasks = 50;
modes =  [{1, 2, 3, 4, 5, 6}, {7, 8, 9, 10, 11, 12}, {13, 14, 15, 16, 17, 18}, {19, 20, 21, 22, 23, 24}, {25, 26, 27, 28, 29, 30}, {31, 32, 33, 34, 35, 36}, {37, 38, 39, 40, 41, 42}, {43, 44, 45, 46, 47, 48}, {49, 50, 51, 52, 53, 54}, {55, 56, 57, 58, 59, 60}, {61, 62, 63, 64, 65, 66}, {67, 68, 69, 70, 71, 72}, {73, 74, 75, 76, 77, 78}, {79, 80, 81, 82, 83, 84}, {85, 86, 87, 88, 89, 90}, {91, 92, 93, 94, 95, 96}, {97, 98, 99, 100, 101, 102}, {103, 104, 105, 106, 107, 108}, {109, 110, 111, 112, 113, 114}, {115, 116, 117, 118, 119, 120}, {121, 122, 123, 124, 125, 126}, {127, 128, 129, 130, 131, 132}, {133, 134, 135, 136, 137, 138}, {139, 140, 141, 142, 143, 144}, {145, 146, 147, 148, 149, 150}, {151, 152, 153, 154, 155, 156}, {157, 158, 159, 160, 161, 162}, {163, 164, 165, 166, 167, 168}, {169, 170, 171, 172, 173, 174}, {175, 176, 177, 178, 179, 180}, {181, 182, 183, 184, 185, 186}, {187, 188, 189, 190, 191, 192}, {193, 194, 195, 196, 197, 198}, {199, 200, 201, 202, 203, 204}, {205, 206, 207, 208, 209, 210}, {211, 212, 213, 214, 215, 216}, {217, 218, 219, 220, 221, 222}, {223, 224, 225, 226, 227, 228}, {229, 230, 231, 232, 233, 234}, {235, 236, 237, 238, 239, 240}, {241, 242, 243, 244, 245, 246}, {247, 248, 249, 250, 251, 252}, {253, 254, 255, 256, 257, 258}, {259, 260, 261, 262, 263, 264}, {265, 266, 267, 268, 269, 270}, {271, 272, 273, 274, 275, 276}, {277, 278, 279, 280, 281, 282}, {283, 284, 285, 286, 287, 288}, {289, 290, 291, 292, 293, 294}, {295, 296, 297, 298, 299, 300}];
succ =  [{10, 6, 2}, {3}, {13, 11, 9}, {13, 11, 9}, {11, 9}, {17, 15, 12}, {13, 12}, {22, 18, 17, 16, 14}, {17, 14, 12}, {22, 13}, {22, 18, 17, 16}, {23, 22, 20, 16}, {18, 17, 16}, {28, 23, 20, 19}, {35, 28, 18}, {35, 28, 19}, {35, 28, 19}, {23, 19}, {34, 31, 24, 21}, {35, 31, 27, 21}, {33, 29, 26, 25}, {34, 29, 27, 26}, {33, 32, 29, 26}, {33, 29, 27}, {40, 39, 38, 36, 32, 30}, {40, 38, 36, 30}, {42, 40, 38, 37, 32}, {39, 38, 37, 36}, {39, 36, 30}, {45, 44, 42, 37}, {49, 41, 36}, {50, 45, 44, 43, 41}, {49, 44, 43, 41}, {49, 38}, {50, 49, 47, 41}, {47, 45, 42}, {50, 49, 41}, {43, 41}, {49, 48, 47, 46}, {49, 47, 46}, {48, 46}, {50, 48}, {47, 46}, {47, 46}, {46}, {}, {}, {}, {}, {}];
n_opt = 300;
dur = [1, 5, 7, 8, 10, 17, 1, 9, 12, 13, 19, 24, 9, 14, 21, 22, 23, 29, 1, 3, 4, 6, 18, 25, 7, 8, 12, 18, 25, 26, 1, 10, 13, 24, 25, 30, 1, 7, 10, 18, 21, 22, 1, 2, 6, 17, 26, 29, 3, 14, 18, 23, 24, 26, 1, 3, 6, 9, 10, 20, 7, 9, 10, 14, 25, 27, 1, 2, 3, 10, 25, 29, 7, 9, 17, 25, 28, 30, 4, 6, 16, 20, 22, 28, 9, 10, 13, 21, 22, 28, 10, 13, 17, 18, 22, 23, 2, 3, 9, 11, 18, 30, 1, 2, 4, 9, 12, 30, 8, 9, 15, 18, 22, 23, 3, 5, 9, 15, 16, 20, 4, 5, 9, 16, 27, 29, 3, 6, 15, 16, 27, 30, 4, 7, 10, 23, 25, 29, 7, 9, 18, 25, 26, 27, 6, 7, 8, 9, 16, 19, 9, 12, 14, 20, 22, 23, 1, 7, 8, 12, 14, 29, 4, 8, 9, 17, 29, 30, 1, 7, 11, 12, 16, 18, 4, 14, 18, 25, 26, 27, 2, 6, 13, 21, 22, 29, 2, 4, 8, 16, 17, 25, 1, 2, 20, 25, 26, 28, 1, 13, 16, 17, 18, 23, 1, 3, 4, 6, 7, 14, 11, 12, 13, 14, 18, 30, 5, 8, 9, 14, 22, 29, 1, 2, 15, 20, 21, 25, 2, 5, 13, 15, 25, 26, 3, 13, 14, 25, 26, 27, 5, 10, 14, 15, 25, 28, 2, 15, 17, 19, 24, 27, 3, 13, 14, 15, 18, 21, 8, 9, 18, 20, 27, 28, 7, 8, 16, 22, 23, 29, 1, 15, 16, 17, 23, 30, 9, 10, 11, 12, 13, 20, 11, 13, 16, 17, 25, 26, 5, 7, 11, 13, 22, 25, 5, 7, 15, 27, 28, 29];
rreq = [|27, 26, 22, 20, 19, 16, 22, 21, 18, 13, 9, 4, 25, 24, 24, 23, 23, 23, 13, 11, 10, 8, 7, 6, 25, 22, 20, 15, 12, 10, 21, 18, 18, 12, 11, 7, 12, 11, 11, 10, 10, 9, 15, 14, 14, 14, 12, 12, 23, 23, 23, 22, 22, 22, 7, 6, 6, 5, 5, 5, 18, 17, 17, 16, 16, 15, 17, 16, 16, 15, 14, 14, 25, 20, 17, 17, 13, 10, 13, 13, 13, 13, 13, 13, 18, 18, 17, 17, 16, 16, 24, 23, 23, 22, 22, 21, 26, 23, 16, 15, 5, 5, 19, 14, 12, 10, 5, 3, 8, 8, 7, 5, 5, 4, 28, 28, 26, 26, 25, 24, 27, 26, 25, 24, 23, 23, 13, 9, 7, 5, 5, 1, 17, 15, 15, 15, 14, 13, 25, 24, 23, 23, 23, 22, 13, 11, 9, 7, 3, 1, 30, 29, 28, 28, 27, 27, 13, 12, 11, 10, 8, 7, 11, 9, 8, 8, 5, 5, 13, 10, 9, 9, 7, 7, 21, 19, 18, 18, 16, 16, 11, 11, 11, 10, 10, 9, 26, 26, 26, 25, 24, 24, 21, 18, 17, 17, 14, 13, 18, 18, 14, 14, 10, 10, 5, 5, 5, 4, 4, 4, 9, 8, 6, 6, 5, 4, 25, 22, 19, 18, 14, 12, 28, 25, 21, 20, 17, 12, 26, 23, 21, 17, 9, 6, 22, 19, 16, 11, 10, 8, 18, 16, 16, 15, 13, 13, 29, 22, 20, 12, 9, 6, 14, 13, 13, 12, 12, 12, 11, 11, 11, 11, 11, 11, 20, 17, 16, 12, 11, 7, 27, 25, 20, 14, 9, 6, 21, 21, 21, 21, 21, 21, 19, 18, 16, 15, 14, 13, 19, 16, 14, 11, 6, 5, 10, 10, 10, 10, 10, 10
 |20, 18, 17, 15, 13, 12, 20, 18, 14, 11, 6, 4, 27, 25, 22, 19, 17, 16, 29, 28, 28, 27, 27, 27, 25, 21, 16, 11, 10, 3, 22, 22, 22, 22, 22, 22, 29, 29, 29, 29, 28, 28, 4, 4, 4, 4, 4, 4, 23, 22, 22, 22, 22, 22, 21, 21, 15, 10, 6, 2, 22, 18, 13, 11, 8, 6, 15, 12, 12, 10, 6, 5, 3, 2, 2, 2, 2, 2, 27, 26, 26, 26, 25, 25, 26, 26, 26, 26, 25, 25, 20, 16, 13, 9, 6, 4, 15, 13, 12, 10, 10, 7, 23, 20, 14, 10, 7, 3, 15, 13, 12, 8, 7, 4, 13, 12, 10, 9, 8, 7, 19, 16, 15, 15, 14, 13, 30, 27, 27, 24, 24, 22, 17, 16, 14, 14, 11, 11, 10, 9, 8, 6, 5, 2, 24, 23, 23, 21, 19, 19, 13, 13, 12, 10, 10, 9, 5, 5, 5, 5, 5, 5, 21, 19, 12, 8, 8, 2, 13, 13, 12, 12, 10, 10, 18, 15, 13, 9, 6, 2, 26, 24, 22, 20, 19, 16, 4, 4, 4, 4, 4, 4, 21, 14, 12, 10, 4, 3, 29, 27, 24, 22, 21, 19, 16, 15, 15, 14, 11, 11, 23, 22, 21, 19, 17, 15, 29, 25, 21, 14, 13, 10, 6, 5, 5, 5, 5, 5, 14, 12, 8, 8, 6, 2, 19, 16, 15, 12, 5, 5, 7, 6, 6, 5, 4, 3, 22, 17, 14, 12, 10, 6, 4, 4, 3, 2, 1, 1, 23, 23, 23, 22, 22, 21, 28, 28, 28, 28, 28, 28, 19, 16, 15, 12, 10, 5, 21, 20, 18, 15, 9, 8, 24, 22, 20, 19, 17, 15, 23, 20, 17, 16, 13, 11, 25, 24, 18, 13, 9, 8
 |28, 25, 24, 23, 20, 20, 20, 15, 12, 9, 6, 5, 11, 10, 9, 9, 8, 8, 30, 21, 20, 14, 7, 6, 18, 15, 12, 11, 8, 5, 11, 9, 9, 8, 6, 5, 17, 16, 16, 15, 15, 15, 19, 18, 18, 18, 18, 18, 18, 16, 14, 13, 10, 10, 25, 25, 21, 19, 18, 16, 24, 21, 16, 12, 8, 5, 28, 27, 27, 27, 27, 27, 18, 17, 16, 12, 11, 7, 24, 24, 23, 22, 20, 20, 12, 10, 9, 7, 7, 4, 29, 28, 28, 27, 27, 26, 14, 12, 9, 9, 6, 2, 25, 24, 22, 21, 18, 18, 25, 19, 18, 13, 11, 8, 25, 24, 23, 21, 20, 19, 16, 16, 16, 16, 16, 16, 12, 10, 8, 5, 4, 1, 5, 5, 5, 5, 5, 5, 3, 3, 3, 2, 2, 2, 18, 16, 11, 11, 7, 3, 7, 6, 6, 5, 4, 2, 27, 23, 23, 20, 17, 17, 17, 16, 12, 10, 4, 2, 14, 12, 10, 9, 8, 7, 14, 13, 12, 12, 10, 10, 23, 22, 18, 16, 13, 11, 18, 17, 15, 11, 9, 7, 21, 18, 17, 14, 12, 11, 18, 16, 15, 14, 12, 10, 26, 18, 16, 10, 10, 6, 23, 21, 19, 14, 14, 11, 24, 17, 15, 13, 6, 4, 22, 19, 16, 13, 9, 7, 29, 28, 28, 28, 28, 28, 25, 24, 20, 15, 15, 9, 16, 16, 16, 15, 14, 14, 28, 25, 21, 18, 14, 11, 12, 10, 9, 7, 6, 4, 7, 6, 6, 5, 3, 3, 9, 9, 9, 9, 9, 9, 16, 15, 12, 9, 5, 3, 20, 20, 16, 15, 12, 12, 17, 17, 15, 14, 13, 12, 30, 29, 29, 29, 29, 29, 16, 15, 13, 11, 8, 8
 |10, 9, 8, 8, 8, 7, 22, 20, 14, 13, 9, 3, 25, 22, 15, 11, 7, 5, 19, 19, 15, 15, 12, 9, 18, 16, 14, 12, 9, 9, 16, 16, 15, 15, 15, 14, 27, 25, 24, 22, 19, 15, 28, 25, 23, 19, 19, 15, 27, 23, 20, 18, 17, 14, 16, 16, 16, 16, 16, 16, 27, 18, 18, 11, 8, 3, 12, 11, 10, 10, 9, 9, 28, 28, 27, 25, 25, 24, 8, 6, 5, 5, 3, 3, 19, 16, 16, 13, 12, 12, 4, 3, 3, 3, 2, 2, 15, 14, 14, 12, 11, 11, 26, 23, 20, 15, 12, 11, 17, 16, 16, 15, 15, 15, 19, 18, 18, 17, 15, 15, 27, 27, 23, 22, 20, 17, 26, 23, 17, 12, 11, 8, 21, 20, 17, 13, 11, 5, 20, 19, 18, 18, 18, 17, 26, 24, 21, 14, 10, 4, 16, 14, 11, 9, 9, 7, 26, 25, 24, 22, 22, 21, 27, 27, 27, 26, 26, 25, 24, 23, 22, 20, 19, 19, 25, 25, 23, 22, 21, 21, 29, 28, 27, 27, 27, 26, 29, 29, 29, 29, 29, 29, 19, 18, 16, 11, 5, 5, 9, 8, 8, 7, 6, 6, 26, 25, 25, 23, 22, 22, 16, 15, 13, 11, 11, 9, 16, 15, 14, 10, 10, 8, 16, 12, 12, 8, 7, 5, 23, 20, 18, 13, 11, 3, 19, 16, 14, 13, 11, 11, 29, 25, 23, 19, 19, 14, 14, 13, 11, 10, 9, 9, 20, 16, 13, 11, 7, 6, 22, 20, 17, 16, 13, 12, 20, 19, 19, 17, 15, 14, 26, 21, 18, 17, 11, 10, 27, 26, 25, 24, 23, 23, 22, 19, 14, 12, 7, 4, 20, 20, 18, 17, 16, 14, 15, 13, 12, 12, 10, 9
 |21, 20, 19, 17, 17, 16, 27, 26, 25, 24, 23, 23, 16, 14, 13, 12, 11, 11, 10, 10, 10, 9, 9, 8, 17, 16, 15, 14, 13, 13, 13, 12, 11, 11, 10, 10, 11, 8, 7, 5, 3, 2, 15, 15, 13, 12, 11, 10, 18, 15, 14, 12, 9, 8, 15, 13, 12, 11, 8, 7, 13, 12, 12, 11, 11, 11, 13, 11, 10, 10, 8, 7, 9, 7, 6, 4, 3, 2, 30, 23, 21, 12, 10, 7, 25, 24, 22, 19, 18, 16, 19, 19, 19, 18, 18, 18, 5, 4, 3, 3, 1, 1, 26, 20, 15, 12, 8, 5, 21, 20, 20, 19, 19, 19, 28, 25, 23, 21, 16, 13, 12, 10, 6, 6, 2, 2, 9, 7, 7, 6, 3, 3, 2, 2, 2, 1, 1, 1, 18, 18, 18, 18, 18, 18, 24, 21, 21, 18, 13, 12, 15, 13, 11, 9, 9, 8, 12, 11, 10, 8, 8, 7, 21, 18, 16, 13, 11, 8, 30, 26, 24, 24, 21, 20, 10, 9, 8, 8, 7, 7, 24, 18, 16, 10, 8, 3, 6, 5, 4, 3, 2, 1, 18, 17, 16, 14, 13, 12, 14, 13, 13, 13, 12, 12, 23, 21, 19, 17, 14, 14, 8, 7, 6, 6, 5, 4, 13, 11, 11, 10, 10, 9, 29, 26, 22, 22, 17, 17, 19, 19, 15, 14, 11, 10, 12, 11, 10, 8, 8, 7, 24, 21, 15, 14, 10, 2, 3, 3, 3, 3, 3, 3, 11, 8, 8, 5, 4, 4, 29, 25, 22, 17, 15, 12, 28, 28, 24, 24, 22, 19, 27, 23, 19, 14, 14, 7, 3, 3, 3, 3, 2, 2, 12, 11, 11, 11, 11, 11, 29, 28, 28, 28, 27, 27, 15, 15, 15, 15, 15, 15
 |18, 18, 18, 18, 18, 18, 16, 14, 14, 13, 12, 11, 24, 24, 23, 23, 22, 22, 16, 16, 15, 13, 11, 10, 23, 21, 18, 17, 14, 12, 30, 24, 24, 19, 18, 14, 20, 15, 14, 13, 9, 7, 12, 12, 11, 11, 10, 9, 7, 5, 5, 3, 2, 2, 26, 23, 17, 17, 14, 11, 24, 23, 22, 21, 20, 20, 15, 15, 15, 14, 14, 13, 14, 10, 8, 7, 6, 3, 15, 14, 14, 13, 13, 13, 11, 7, 6, 6, 2, 2, 27, 25, 24, 23, 23, 22, 26, 24, 24, 21, 20, 16, 19, 15, 12, 10, 5, 1, 20, 17, 17, 13, 13, 9, 29, 26, 26, 25, 23, 22, 23, 22, 21, 20, 20, 19, 26, 24, 24, 23, 19, 18, 25, 21, 18, 17, 13, 5, 10, 10, 10, 10, 10, 10, 19, 19, 19, 19, 19, 19, 25, 21, 16, 11, 7, 6, 16, 15, 13, 12, 10, 8, 16, 16, 15, 15, 15, 14, 30, 25, 18, 16, 13, 5, 12, 10, 10, 8, 7, 6, 21, 21, 21, 20, 20, 20, 16, 14, 14, 14, 12, 12, 11, 9, 8, 6, 3, 3, 18, 17, 17, 17, 16, 16, 23, 21, 21, 20, 18, 16, 27, 27, 27, 27, 27, 27, 20, 20, 20, 20, 20, 20, 27, 23, 20, 15, 14, 7, 28, 25, 17, 14, 9, 6, 21, 15, 13, 13, 7, 7, 8, 8, 8, 8, 8, 8, 8, 7, 5, 5, 4, 3, 21, 19, 17, 16, 14, 12, 25, 24, 22, 20, 19, 17, 14, 12, 11, 10, 9, 9, 23, 20, 19, 18, 18, 16, 27, 20, 18, 12, 9, 4, 21, 19, 15, 13, 11, 8, 17, 16, 13, 11, 11, 8, 26, 26, 22, 16, 14, 11|];